(set-logic QF_S)
(declare-fun _var_0xINPUT_204139_() String)
(declare-fun __woorpje_diseq_pref0_() String)
(declare-fun __woorpje_diseq_suf_l0_() String)
(declare-fun __woorpje_diseq_suf_r0_() String)
(assert (=(str.++  "ECsfa6UVuX" "")(str.++ __woorpje_diseq_pref0_  "6" __woorpje_diseq_suf_l0_  "")) )
(assert (=(str.++ _var_0xINPUT_204139_  "")(str.++ __woorpje_diseq_pref0_  "X" __woorpje_diseq_suf_r0_  "")) )
(check-sat)
